clasp version 2.1.1
Reading from stdin
Solving...
UNKNOWN

INTERRUPTED : 1
Models      : 0+    
Time        : 86.710s (Solving: 86.58s 1st Model: 0.00s Unsat: 0.00s)
CPU Time    : 259.140s
Choices     : 4765398
Conflicts   : 4515656
Restarts    : 1166   (Average: 3872.78 Last: 537494)

Atoms       : 13855 
Rules       : 48173  (1: 47784 2: 360 3: 29)
Bodies      : 26821 
Equivalences: 6828   (Atom=Atom: 443 Body=Body: 0 Other: 6385)
Tight       : Yes

Variables   : 36900  (Eliminated:    0 Frozen: 10800)
Constraints : 55170  (Binary: 42.6% Ternary: 56.8% Other:  0.7%)
Lemmas      : 4515658 (Binary:  0.0% Ternary:  0.0% Other:100.0%)
  Conflict  : 4515656 (Average Length: 24.9) 
  Loop      : 0      (Average Length: 0.0) 
  Other     : 2      (Average Length: 3.0)
  Deleted   : 4119986

============ PARALLEL STATISTICS ============

Threads     : 3
Winner      : -1
Distributed : 5      (Ratio: 0.00 Average LBD: 3.80) 
Integrated  : 10     (Ratio: 2.00 Unit: 1 Average Jumps: 0.00)
Splits      : 0
Problems    : 3      (Average Length: 0.00) 

